NAME : morphed18-2-27
COMMENT : Generated using the function morphInstances from the R-package netgen (Bossek,2015) - Number of clusters: 2 Alpha: 0.5
TYPE : TSP
DIMENSION : 18
EDGE_WEIGHT_TYPE : EUC_2D
NODE_COORD_SECTION
1 81.6315004687 59.7891595939
2 22.7487359982 13.9534009457
3 67.4093244942 24.3640113647
4 44.8962624477 79.2112796709
5 35.6915901041 54.3356228872
6 41.5320836321 40.1656353818
7 30.8088243205 75.9847334005
8 22.0816519444 22.418458255
9 31.9791086909 56.9157602619
10 30.6986918368 20.6740319798
11 55.4289012663 27.6636655555
12 70.619279139 50.9400335193
13 52.1440542156 15.2177618992
14 67.8340880256 51.3953725156
15 68.8094920818 19.1431708006
16 66.3398560449 40.0279525195
17 78.2728255153 35.9597965984
18 24.522345948 43.5633898791
EOF
